certificates/rado_a15_c84_N61.drat
2 -59 9 0
-59 9 0
d 2 -59 9 0
-2 9 -61 0
9 -61 0
d -2 9 -61 0
-56 59 -9 0
59 -61 0
56 -61 0
-61 0
-56 0
2 0
-4 -7 0
d -25 -4 -7 0
-7 0
28 0
35 0
40 0
-4 0
32 0
37 0
25 0
31 0
-5 0
-6 0
9 0
14 0
47 0
52 0
26 0
16 0
13 0
29 0
12 0
15 0
50 0
55 0
10 0
27 0
1 0
11 0
30 0
-60 0
-53 0
0
